NAME	test.mps SIZE: N=11,  M=10, NZ=34
ROWS
 E  R1
 E  R2
 E  R3
 E  R4
 E  R5
 E  R6
 E  R7
 E  R8
 E  R9
 E  R10
 N  COST
COLUMNS
    C1        R10      1.000000        R9       1.000000
    C1        R8       1.000000        R7       1.000000
    C1        R6       1.000000        R4       2.000000
    C1        COST     1.000000
    C2        R10      1.000000        R9       1.000000
    C2        R7       1.000000        R4       2.000000
    C2        COST     1.000000
    C3        R10     -1.000000        R7      -1.000000
    C3        R5      -1.000000        R4      -2.000000
    C3        R3       2.000000
    C3        COST     1.000000
    C4        R10     -1.000000        R8      -1.000000
    C4        R7       1.000000        R5      -1.000000
    C4        R4      -2.000000
    C4        COST    -1.000000
    C5        R2       1.000000        R1       1.000000
    C5        COST     1.000000
    C6        R10      1.000000        R9      -1.000000
    C6        R8       1.000000        R7      -1.000000
    C6        R6       1.000000        R5       1.000000
    C6        R4       2.000000
    C7        R1      -1.000000
    C8        R2       1.000000
    C9        R4      -1.000000
    C10       R5       1.000000
    C11       R7      -1.000000
RHS
    DEMANDS   R1              3        R2              3
    DEMANDS   R3              1        R4            1.5
    DEMANDS   R5              1        R6              1
    DEMANDS   R7              1        R8              1
    DEMANDS   R9              2        R10             2
BOUNDS
ENDATA